p cnf 7230 17
-4648 -6487 -6591 0
-6359 -6495 -6589 0
-6355 -6493 -6587 0
4648 -6592 0
6359 -6590 0
6355 -6588 0
6591 6592 0
6589 6590 0
6587 6588 0
6487 -6592 0
6495 -6590 0
6493 -6588 0
-4650 -6489 6594 0
6585 6586 0
-6585 -6586 0
6489 -6594 0
4650 -6594 0
